t=6;
p=11;
minp=[  5,          4,       2,     2,      1,      3];
% International, National, Local, Sport, Culture, Faran
maxp=[  9,          7,       5,     4,      3,      5];
rea=[  1500,      2000,    1000,  1500,    750,    925];
